param n := 9;

param m := 10;

param duree :		1  2  3  4  5  6  7 8 9  10 :=
				1 	74 28 89 60 54 92 9 4 25 15 
				2	21 3 52 88 66 11 8 18 15 84 
				3	58 27 56 26 12 54 88 25 91 8 
				4	4 61 13 58 57 97 72 28 49 30 
				5	21 34 7 76 70 57 27 95 56 95 
				6	28 76 32 98 82 53 22 51 10 79 
				7	58 64 32 29 99 65 50 84 62 9 
				8	83 87 98 47 84 77 2 18 70 91 
				9	31 54 46 79 16 51 49 6 76 76 ;
